
 102   30
  10   10   10   10   10   10   10   10   10   10   10   10   10   10   10   10   10   10   10   10   10   10   10   10   10   10   10   10   10   10

   0   0   0   0   0   0   0   0   0   0   0   0   0   0   0   0   0   0   0   0   0   0   0   0   0   0   0   0   0   0   0  31 2 3 4 5 6 7 8 9 10 11 12 13 14 15 17 18 19 20 21 22 23 24 25 26 27 28 31 32 33 40 41 
   5   0   0   0   0   0   0   0   0   0   0   0   0   0   0   0   0   1   0   0   0   0   0   0   0   0   0   0   0   0   0  11 72 67 65 62 49 43 42 37 34 29 16 
   3   0   0   1   0   0   0   0   0   0   0   0   0   0   0   0   0   0   0   0   3   0   0   0   0   0   0   0   0   4   0  18 99 72 67 66 64 60 57 55 53 51 49 48 47 45 44 39 38 35 
   8   0   0   0   3   0   0   0   0   0   0   0   0   0   0   1   0   0   1   0   0   0   0   0   0   0   0   0   0   3   0  17 98 93 74 73 70 66 65 64 60 58 57 55 54 51 45 43 35 
   9   0   0   0   0   0   3   1   0   0   0   0   0   0   0   0   0   0   0   0   0   0   0   1   0   0   0   0   0   0   0  13 94 62 57 55 54 52 51 48 46 45 43 36 30 
   4   0   1   0   0   0   0   0   0   1   0   0   0   0   0   0   0   0   0   2   0   0   0   0   0   0   0   0   0   0   0  13 99 93 73 70 66 60 56 54 51 49 45 39 36 
   6   0   0   0   3   0   0   0   0   9   0   0   0   0   0   0   0  10   0   0   0   0   0   0   0   0   0   0   0   9   0  13 97 94 73 64 62 61 60 54 53 51 46 44 30 
   3   0   5   0   0   0   1   0   0   0   0   0   0   0   0   7   0   0   0   0   0   1   0   0   1   1   0   0   0   0   0  20 99 98 97 95 94 91 88 74 73 72 69 65 64 62 61 54 51 49 48 45 
  10   0   4   0   6   0   0   0   1   7   0   1   0   0   0   0   0   4   0   0   0   0   0   0   0   0   0   4   0   0   0  17 101 95 94 93 71 70 69 66 65 64 63 62 57 54 51 49 43 
   6   0   0   0   0   0   0   7   0   0   0   0   0   0   0   0   2   0   0   0   0   0   0   0   0   0   0   0   0   0   1  14 100 90 73 72 71 68 66 65 63 56 55 46 44 43 
  10   0   0   0   0   0   0   0   0   0   0   0   1   0   0   0   2   0   0   0   0   1   0   0   0   6   0   0   0   0   0   9 95 94 65 58 56 54 51 45 29 
  10   0   0   0   0   0   0   0   0   5   0   0   0   0   0   0   0   0   0   0   0   0   0   0   0   0   0   0   4   0   0  16 101 100 97 95 93 81 73 70 66 64 63 58 57 54 50 43 
   3   0   0   0   0   0   0   0   0   0   0   0   0   0   0   9   0   0   0   0   0   0   1   0   0   0   0   0   0   5   0  17 98 97 96 95 94 73 71 70 69 66 64 63 62 58 57 55 43 
   7   0   0   0   0   3   0   0   0   0   0   0   0   0   2   0   0   0   0   0   0   0   0   0   0   0   0   0   0   0   0  20 101 99 97 95 94 93 90 88 85 79 74 73 72 67 66 65 64 56 55 46 
   8   0   0   0   6   0   0   0   0   0   0   6   0   0   0   0   0   0   0   9   0   0   0   0   0   0   0   0   0   0   7  10 94 71 69 66 58 55 54 48 43 38 
   5   0   0   0   0   0   0   0   0   6   0   0   0   0   0   0   0   0   0   0   0   0   8   0   0   0   0   0   0   9   0  13 99 97 94 92 91 88 60 58 57 56 55 45 44 
   1   1   5   0   6   0   0   0   0   0   0   0   0   0   5   0   0   0   7   0   0   0   0   0   0   0   0   0   0   0   0  18 101 100 97 96 95 93 90 83 79 71 68 66 65 63 62 61 56 46 
   6   0   0   0   0   0   0   0   0   0   0   0   0   0   0   5   0   0   0   0   8   8   0   0   0   0   0   0   0   0   0  18 101 100 99 98 94 93 90 88 84 80 73 72 70 66 65 62 61 45 
   4   0   0   0   0   0   0   0   0   0   0   0   0   0   0   0   0   0   0   0   0   0   0   0   0   0   0   0   0   0   0  16 99 97 95 89 84 82 76 72 70 69 66 63 62 57 55 45 
   3   6   0   0   0   0   0   4   9   0   0   0   0   0   0   0   0   7   0   0   0   0   0   0   7   0   1   0   0   0   0  13 100 97 94 84 81 71 70 68 66 65 57 56 43 
   8   0   6   0   8   3   0   0   0   0   0   0   0   0   0   0   0   0   0   0   0   0   0   8   0   0   0   0   0   5   0  12 99 98 97 94 88 82 62 59 55 49 48 44 
   7   0   0   0   0   0   0   0   8   0   0   5   0   0   0   0   0   0   0   6   0   0   0   0   0   0   7   0   4   0   0  17 100 99 94 93 89 84 80 72 71 70 69 68 66 65 63 62 59 
   4   0   0   5  10   0   0   0   0   0   0   6   0   0   0   0   0   0   0   0   4   0   0   0   8   7   0   0   0   0   4  17 100 99 98 96 95 93 92 89 82 76 70 69 64 63 62 59 52 
   4   0   0   0   0   6   0   8   0   0   0   0   0   0   0   0   0   0   0  10   0   0   0   0   0   0   0   0   3   0   0  13 98 95 94 93 90 74 73 70 65 54 52 51 45 
   5   0   0   0   0   0   0   0   0   0   0   0   0   0   0   0   0   0   0   9   0   0  10   0   0   0   0   0   0   0   0  17 98 97 95 93 92 91 89 78 77 76 71 70 68 63 62 57 54 
   5   0   0   0   0   0   0   0   0   0   0   0   4   0   6   0   9  10   0   0   0  10   0   0   0   0   0   0   0   0   0  15 99 97 96 94 88 87 85 84 80 69 66 65 61 60 45 
   3   0   0   0   0   0   0   0   0   0   1   0   0   2   0   0   0   3   0   0   0   8   0   0   0   0   0   0   0   0   0  15 100 98 97 95 90 89 88 72 69 68 66 65 62 59 52 
   4   0   0   0   0   0   0   0   0   0   0   0   0   0  10   0   0   0   8   0   0   0   0   0   5   0   0   4   0   0   0  10 88 81 72 69 66 65 59 57 48 46 
   7   0   0   0   0   0   0   0   0   0   0   8   0   0   0   0   0   0  10   0   0   0   0   0   0   0   0   0   0   0   0  15 98 97 96 88 86 82 80 78 73 71 69 66 64 60 57 
   5   0   0   0   0   0   0   0   0   0   0   0   0   0   0   0   0   0   0   0   0   0   0   0   0   0   0   0   0   0   6  15 99 93 90 87 85 84 81 80 70 69 68 66 65 63 59 
   9   0   0   0   0   0   0   0   0   0   0   0   0   0   0   0   0   0   4   0   0   0   0   0   7   0   0   0   0   0   0  13 99 97 88 84 81 74 72 70 69 66 65 59 57 
  10   0   0   0   0   0   0   0   0   0   0   0   6   0   0   0   6   0   0   0   0   0   0   0   0   0   8   0   0   0   0  15 101 98 95 94 93 91 88 84 81 77 72 70 65 59 57 
   6   0   0   0   0   0   0   0   0   0   0   3   0   0   7   0   0   0   0   0   0   0   0   0   0   0   0   0   0   0   0  18 99 98 97 94 90 87 86 85 83 81 80 79 78 77 76 70 66 64 
   9   0   0   0   0   0   0   0   0   4   0   9   0   0   0   0   0   0   0   0   0   0   0   0   0   0   0   0   0   0   0  15 101 100 95 94 92 82 81 80 77 76 71 70 64 63 59 
  10   4   0   0   0   9   0   0   0   0   0   0   0   0   0   0   0   7   6   0  10   5   0   0   0   0   0   0   0   4   0  14 101 100 97 96 95 94 90 83 82 80 79 71 62 56 
   9   0   0   0   0   0   0   0   5   0   0   0   0   0   0   0   0   0   0   0   0   0   0   0   0   0   0   0   0   0   0  15 101 97 95 91 90 85 84 81 80 77 72 71 68 65 59 
   5   0   0   0   0   0  10   0   0   0   0   0   0   0   0   0   0   4   5   0   0   9   0   0   0   0   0   0   0   0   0  11 98 92 88 84 82 81 80 77 74 57 48 
   4   6   0   0   0   0   8   0   0   0   0   0   0   0   0   0   0   0   0   0   0   0   0   7   0   7   0   5   0   0   8  14 100 91 90 88 84 83 80 79 78 77 70 68 65 62 
  10   0   0   0   0   0   0   0   0   0   0   0   6   0   0   0   0   0   0   0   5   0   0   0   0   0   0   0   0  10   0  13 98 94 89 88 82 80 79 78 76 74 69 68 62 
   3   0   0   0   0   0   0   0   5   0   0   5   0   0   0   0   0   0   0   9   0   0   0   8   0   0   0   0   0   0   0   9 95 94 93 92 89 81 65 57 54 
  10   0   0   0   0   0   0   0   0   7   5   7   5   2   0   0   0   0   0   0   0   0   0   0   0   0   0   0   2   0   0  10 93 91 89 88 85 83 76 69 68 54 
   6   0   0   8   0   0   0   0   0   0   0   0   0   0   0   0   0   8   8   0   0   0   0   0   0   0   0   0   0   0   0  15 100 97 90 88 86 84 83 81 80 79 78 77 76 70 68 
   7   0   0   0   0   6   0   0   0   0   0   0   0   0   0   0   0   0   7   0   5   9   0   0   0   8   0   0   7   0   0  12 99 92 89 88 87 85 82 80 77 76 75 59 
   8   0   0   0   0   0   0   0   0   6   9   0   7   0   0   0   0   0   0   0   0   0   5   0   0   7   0   9   5   0   0  11 101 96 95 93 89 84 80 79 78 77 70 
   9   0   0   0   0   0   0   0   0   0   0   0   0  10   5   0   0   0   0   4   8   0   0   0   0   0   0   0   0   0   0   4 81 77 68 59 
   1   0   0   0   0   0   0   4   0   0   0   0   0   0   6   0   0   0   0   0   0   9   0   0   0   0   8   0   0   0   0   8 98 86 84 82 80 77 76 75 
   4   0   0   0   0   0   0   0   6   0   7   0   0   0   0   0   0   0   0   0   0   0   0   0   5   0   0   0   0   0   0   8 88 87 84 81 78 77 76 75 
   3   0   5   0   0   4   0   0   9   0   0   0   0   0   0   0   0   0   0   0   0   0   0   0   0   0   0   0   0   0   0   7 93 90 89 83 78 76 68 
   5   0   0   0   0   0   0   0   9   0   0   3   0   0   0   0   6   0   0   0   0   4   0   0   0   0   0   0  10   0   7   7 84 83 80 79 78 76 68 
   6   0   9   0   0   0   0   0   0   0   0   0   0   0   0   0   0   0   6   0   0   7   0   0   0   0   0  10   0   0   0   7 96 94 92 84 78 76 69 
   3   0   0   0   0   0   0   0   0   0   0   0   5  10   0   0   0   0   0   0   0   0   0   0   0   0   0   0   0   0   0   7 100 86 79 78 77 76 75 
   6   0   7   0   4   0   0   0   0   0   0   0   0   7   0   0   0   0   0   6   0   0   0   0   0   0   0   0   0   4   0   7 91 87 85 83 81 80 75 
   5   0   0   0   0   0   0   0   0   0   0   0   0   0   0   0   0   0   4   2  10   0   0   0   0   0   0   0   0   0   0   5 92 89 88 77 65 
   3   8   0   0   0   0   0   0   0   0   0   0   0   0   0   0   0   0   0   0  10   0   6   4   0   0   0   0   0   6   0   6 96 84 82 80 79 75 
   2   0   0   0   0   0   0   0   0   0   0   0   0   0   0   0   0   0   0   0   0   0   7   0   0   7   0   0   0   0   0   6 86 83 81 80 78 77 
   6  10   0   0   0   0   0   0   0   0   0   0   7   6   0   0   0   0   0   0   0   0   3   0   0   0   0   0   0   0   0   5 89 87 78 76 69 
   6   0   0   0   0   0   0   0   0   0   0   0   0   0   7   8   0   0   3   0   0   0   0   0   0   0   3   0   8   3   0   5 90 87 85 79 75 
   4   0   0   0   0   8   0   0   0   0   0   9   0   0   0   0   6   5   0   6   0   5   0   0   0   0   0   0   7   4   0   5 89 82 79 76 75 
   7   0   0   0   0   0   0   0   0   0   0   0   0   0   0   0   0   0   0   0   5   0   0   4   0   0   0   8   0   0   0   4 86 83 79 78 
   1   0   0   0   0   0   0   0   0   0   0   7   5   0   0   0   0   0   0   8   0   0   0   0   0   0   0   5   0   0   4   4 89 81 77 76 
   5   0   0   0   8   0   6   0   6   0   0   6   0   0   0   6   0   0   0   0   0   0   0   0   0   0   0   8   0   0   0   4 86 77 76 75 
  10   0   0   0   0   0   0   0   0   0   0   0   0   0   0   0   0   0   0   0   0   0   0   0   7   0   0   0   8   0   0   3 87 85 81 
   2   0   0   0   0   0   0   0   0   0   4   0   0   0   0   0   0   0   0   0   0   0   6   0   0   0   0   0   0   0   0   3 88 86 75 
   4   0   0   0   4   0   0   9   0   0   3   0   9   0   0   0  10   0   0   5   6   0   0   0   0   0   0   0   0   0   0   2 84 68 
  10   0   0   0   0   0   0   0   0   0   0   0   0   0   0   0   0   7  10   0   3   0   0   0   0   0   0   0   0   0   0   2 82 76 
   6   0   0   0   0   0   9   7   0   0   0   0   0   0   0   8   0   0   0   0   0   0   0   0   6   0   5   0   8   0   0   2 92 91 
   8   0   0   5   0   0   0   0   0   0   0   0   0   0   0   0   0   5   0   0   0   0   0   0   0   0   0   0   2   0   0   2 82 76 
   4   0   0   0   0   0   0   0   0   0   0   6   0   0   6   6   0   0   0   0   0   0   0   0   0   5   0   3   0   0   8   1 75 
   7   0   0   0   0   0   0   0   0   0   0   0   0   0   0   0   0   5   0   0   0   0   0   0   0   0   0   0   0   0   0   1 77 
   9   0   0  10   0   0   0   6   0   5   0   0   0   0   0   0   9   3   2   6   0   0   8   0   3   0   0   7   0   0   0   1 75 
   4   0   0   0  10   0   7   0   0   7  10   0   0   0   0   0   0   0   0   0   0   0   0   0   0   0   0   0   0   0   0   1 75 
   2   0   0   0   0   0   0   0   0   0   0   0   0   0   0   0   0   0   0   0   0   0   0   0   0   0   0   0   0   0   0   1 75 
   4   0   0   5   0   0   0   0   0   7   0   0   0   0   5   0   0   0   9   0   0   0   0   0   0   0   0   0   0   0   0   1 75 
   2   0   0   0   0   0   4   0   0   0   0   0   0   0   0   0   0   0   0   0   0   4   0   0   0   0   0   0   0   0   0   1 83 
   6   0   0   0   0   0   0   0   0   0  10   0   0   0   0   0   0   0   0   3   0   0   0   0   0   0   0   0   0   0   0   1 102
   2   0   0   0   0   0   6   0   0   0   4   0   0   0   0   0   0   0   0   0   0   4   0   0   0   0   0   0   0   0   0   1 102
   4   0   0   6   0   4   8   0   0   0   0   0   0   0   0   0   0   0   0   0   0   0   0   7   0   0   0   0   0   0   0   1 102
   2   0   0   4   0   0   0   0   0   8   0   0   0   0   0   0   0   0   0   0   0   0   0   0   0   9   6   0   7   0   0   1 102
   5   0   0   0   0   0   4   0   0   0   0   0   0   0   0   0   0   0   0   0   0   0   0   0   0   0   0   0   0   0   0   1 102
   2   0   0   0   0   8   0   0   0   0   0   0   0   0   0   0   0   8   0   0   0   0   4   0   0   0   0   1   0   0   0   1 102
  10   0   0   0   0   0   0   0   5   0   0   0   0   6   0   0   0   0   0   0   5   0   5   0   0   0   0   0   5   0   0   1 102
   9   8   0   0   0   0   0   4   4   0  10   9   7   5   0   0   0   0   0   0   0   6   0   0   0   0   0   0   0   0   0   1 102
   7   0   0   0   0   0   0   0   0   0   0   0   0   0   0   0   0   0   6   0   0   0   0   0   7   3   0   6   5   0   0   1 102
   7   0   0   0   0   0   0   0   0   0   0   0   7   0   0   0   0   0   0   0   0   0   0   0   0   0   0   0  10   0   0   1 102
   8   0   7   0   0   5   0   0   5   0   0   0   0   0   0   0   4   9   0   0   0   0   0   0   0   0   0   8   0   0   0   1 102
   6   0   0   0   0   6   0   0   6   0   0   0   0   0   3   4   5   0   0   0   0   0   0   0   0   0   0   0   0   0   0   1 102
   9   0   0   0   0   0   0   0   0   0   0   0   0   0   0   0   0   0   0   0   0   0   0   9   0   0   0   0   0   0   0   1 102
   4   7   0   0   0   0   0   0   0   0   0   0   9   0   0   0   0   0   0   0   2   0   0   0   9   0  10   0   0   0   0   1 102
   3   0   0   0   5   0   0   0   0   0   5   0   0   2   0   0   0   0   0   0   0   0   0   0   7   0   6   0   7   0   8   1 102
   1   0   0   0   0   0   0   0   0   0   0   0   0   0   0   0   0   0   0   0   0   0   0   0   0   0   0   0   0   0   0   1 102
   3   0   0   0   0   0   0   0   0   0   0   0   0   0   0   0   0   0   0   0   8   0   0   0   0   0   0   0   0   0   0   1 102
   8   6  10   0   0   0   0   0   0   0   0   0   0   0  10   0   0   0   0   0   0   0   0   0   0   0   0   0   0  10   7   1 102
   4   0   0   9   5  10   0   5   0   0   0   0   6  10   0   0   0   0   0   0   0   0   0   0   0   0   0   0   0   0   0   1 102
  10   0   0   0   5   0   0   0   6   0   5   0   0   0   0   0   0   0   0   0   4   0   0   0   0   0   0   0   0   0   0   1 102
   6   0   0   0   0   0   0   0   0   0   0   0   0   0   0   0   0   0   0   0   0   0   0   0   0   0   0   0   0   0   0   1 102
   9   0   4   0   9   0   0   7   0   0   5   0   6   0   0   0   0   0   0   0   0   0   0   0   0   0   0   6   0   0   0   1 102
   1   5   9   0   0   0   0   0   0   0   0   0   0   0   0   0   0   0   0   5   0   0   0   0   0   0   6   0   0   0   7   1 102
   5   0   0   0   0   0   0   0   0   0   0   0   0   6   0   0   0   0   0   0   0   0   9   0   0   0   0   0   0   0   0   1 102
   2   0   0   0   0   0   0   6   0   0   0   0   0   0   0   0   0   0   0   0   0   0   0   0   0   0   0   0   0  10   0   1 102
   6   5   0   7   4   0   0  10   0   0   0   0   0   6   0   0   7   0   0   0   0   4   0   0   0   0   0   0   0   0   0   1 102
   8   0   0   0   0   0   0   0   0   6   0   0   0   0   0   0   0   0   0   0   0   8   0   6   0   0   0   0   0   4   5   1 102
   0   0   0   0   0   0   0   0   0   0   0   0   0   0   0   0   0   0   0   0   0   0   0   0   0   0   0   0   0   0   0   0 
